&bands
outdir = 'tmp'
prefix = 'grap'
filband = 'ScB.bands'
lsym=.true.
/

