&CONTROL
                 calculation = 'bands' ,
                restart_mode = 'from_scratch' ,
                  wf_collect = .true. ,
                      outdir = './tmp',
                  pseudo_dir = '.' ,
                      prefix = 'grap' ,
                     tstress = .true. ,
                     tprnfor = .true. ,
                   verbosity = 'high',
               etot_conv_thr = 1.0D-4,
               forc_conv_thr = 1.0D-3,
                       nstep =  250
 /
 &SYSTEM
    a     =  9.9632964429 ,
    c     =  21.8105999906 ,
    ibrav = 6 ,
    nat   = 18 ,
    ntyp  = 1 ,
                     ecutwfc = 50.D0 ,
                     ecutrho = 400.D0 ,
                 occupations = 'smearing' ,
                     degauss = 0.02 ,
                    smearing = 'mp' ,
                    vdw_corr = 'grimme-d3' ,
 /
 &ELECTRONS
                    conv_thr = 1.D-6 ,
                 mixing_beta = 0.5,
             diagonalization = 'david'
 /
&IONS
/
&CELL
cell_dofree ='2Dxy'
/

ATOMIC_SPECIES
    Cu     63.54600  Cu.pbe-n-van_ak.UPF

K_POINTS
   5
0.0000000000     0.0000000000     0.0000000000     20 # G
0.0000000000     0.5000000000     0.0000000000     20 # Y
0.5000000000     0.5000000000     0.0000000000     20 # M
0.5000000000     0.0000000000     0.0000000000     20 # X
0.0000000000     0.0000000000     0.0000000000     1  # G

ATOMIC_POSITIONS (angstrom)
Cu       0.916912631   0.916912631  10.000060081
Cu       2.577509652   2.577509652  10.000001334
Cu       0.916981133   4.238390361  10.000004307
Cu       2.577352058   5.898833083   9.999989986
Cu       0.916781809   7.559340713  10.000005567
Cu       2.577350131   9.219891105   9.999988605
Cu       4.238390361   0.916981133  10.000004307
Cu       5.898833083   2.577352058   9.999989986
Cu       4.238144456   4.238144456   9.999984551
Cu       5.898952426   5.898952426   9.999942873
Cu       4.238328918   7.559408733  10.000002959
Cu       5.899235404   9.219915127   9.999995467
Cu       7.559340713   0.916781809  10.000005567
Cu       9.219891105   2.577350131   9.999988605
Cu       7.559408733   4.238328918  10.000002959
Cu       9.219915127   5.899235404   9.999995467
Cu       7.559541481   7.559541481  10.000038761
Cu       9.219693789   9.219693789   9.999998618



